============================[ Problem Statistics ]=============================|                                                                             ||  Number of variables:          4242                                         ||  Number of clauses:           10415                                         ||  Parse time:                   0.90 s                                       ||                                                                             |============================[ Search Statistics ]==============================| Conflicts |          ORIGINAL         |          LEARNT          | Progress ||           |    Vars  Clauses Literals |    Limit  Clauses Lit/Cl |          |===============================================================================|       100 |    1591     6620  1279821 |     2427      100     53 | 62.501 % ||       250 |    1591     6620  1279821 |     2670      250     75 | 62.495 % |===============================================================================restarts              : 4conflicts             : 432            (330 /sec)decisions             : 792            (0.00 % random) (605 /sec)propagations          : 13709          (10473 /sec)conflict literals     : 36350          (94.49 % deleted)CPU time              : 1.309 sSATISFIABLE